
******************************************************************************
This program contains Ipopt, a library for large-scale nonlinear optimization.
 Ipopt is released as open source code under the Eclipse Public License (EPL).
         For more information visit http://projects.coin-or.org/Ipopt
******************************************************************************

This is Ipopt version 3.12.6, running with linear solver ma57.

Number of nonzeros in equality constraint Jacobian...:    10000
Number of nonzeros in inequality constraint Jacobian.:      198
Number of nonzeros in Lagrangian Hessian.............:     5050

Total number of variables............................:      100
                     variables with only lower bounds:        0
                variables with lower and upper bounds:        0
                     variables with only upper bounds:        0
Total number of equality constraints.................:      100
Total number of inequality constraints...............:       99
        inequality constraints with only lower bounds:       99
   inequality constraints with lower and upper bounds:        0
        inequality constraints with only upper bounds:        0

iter    objective    inf_pr   inf_du lg(mu)  ||d||  lg(rg) alpha_du alpha_pr  ls
   0  0.0000000e+00 1.00e+00 1.00e+00  -1.0 0.00e+00    -  0.00e+00 0.00e+00   0
   1  0.0000000e+00 9.12e-01 1.92e+01  -1.0 1.11e-01    -  1.00e+00 8.95e-02h  1
   2  0.0000000e+00 7.13e-01 3.40e+02  -1.0 8.62e-02    -  1.76e-01 2.32e-01h  1
   3  0.0000000e+00 6.05e-01 5.83e+02  -1.0 5.00e-02    -  1.88e-01 1.57e-01h  1
   4  0.0000000e+00 2.29e-01 1.38e+03  -1.0 1.77e-02    -  1.00e+00 7.70e-01h  1
   5  0.0000000e+00 1.32e-01 8.06e+02  -1.0 3.33e-02    -  4.83e-01 4.84e-01f  1
   6  0.0000000e+00 1.25e-01 7.52e+02  -1.0 1.98e-01    -  1.27e-01 5.23e-02h  1
   7  0.0000000e+00 1.10e-01 6.71e+02  -1.0 1.51e-01    -  1.14e-01 1.23e-01f  1
   8  0.0000000e+00 8.10e-02 5.64e+02  -1.0 1.17e-01    -  1.00e+00 2.83e-01f  1
   9  0.0000000e+00 2.59e-02 3.15e+02  -1.0 2.80e-02    -  1.12e-01 8.69e-01f  1
iter    objective    inf_pr   inf_du lg(mu)  ||d||  lg(rg) alpha_du alpha_pr  ls
  10  0.0000000e+00 2.76e-02 4.64e+04  -1.0 2.09e-02    -  9.54e-02 1.00e+00f  1
  11  0.0000000e+00 9.20e-03 1.04e+04  -1.0 2.66e-03   6.0 1.00e+00 1.00e+00h  1
  12  0.0000000e+00 2.51e-03 2.92e+03  -1.0 9.04e-04   5.5 1.00e+00 1.00e+00h  1
  13  0.0000000e+00 6.50e-04 7.53e+02  -1.0 5.78e-04   5.0 1.00e+00 1.00e+00h  1
  14  0.0000000e+00 1.65e-04 3.28e+02  -1.0 5.61e-04   4.6 1.00e+00 1.00e+00h  1
  15  0.0000000e+00 4.42e-05 3.29e+02  -1.0 8.79e-04   4.1 1.00e+00 1.00e+00h  1
  16  0.0000000e+00 1.65e-05 2.30e+02  -1.0 1.46e-03   3.6 1.00e+00 1.00e+00h  1
  17  0.0000000e+00 1.12e-05 5.11e+02  -1.0 4.67e-04   4.0 1.00e+00 1.00e+00h  1
  18  0.0000000e+00 1.56e-05 8.46e+01  -1.0 1.12e-03   3.6 1.00e+00 1.00e+00f  1
  19  0.0000000e+00 1.59e-05 1.98e+03  -1.0 2.22e-02    -  1.00e+00 1.00e+00f  1
iter    objective    inf_pr   inf_du lg(mu)  ||d||  lg(rg) alpha_du alpha_pr  ls
  20  0.0000000e+00 6.26e-06 2.61e+02  -1.0 1.20e-02    -  1.00e+00 1.00e+00f  1
  21  0.0000000e+00 5.70e-06 5.75e+02  -1.0 4.21e-05   4.9 1.00e+00 1.00e+00h  1
  22r 0.0000000e+00 5.70e-06 2.85e+01  -1.0 0.00e+00   8.0 0.00e+00 4.77e-07R 22
  23r 0.0000000e+00 8.08e-03 3.49e+02  -1.0 7.98e-02    -  1.00e+00 1.00e+00f  1
  24r 0.0000000e+00 6.01e-03 2.35e+02  -1.0 7.38e-03   4.0 3.66e-01 3.04e-01h  1
  25r 0.0000000e+00 1.99e-03 3.58e+02  -1.0 9.71e-03   3.5 6.15e-01 1.00e+00h  1
  26r 0.0000000e+00 6.97e-04 3.43e+02  -1.0 1.19e-02   3.0 1.00e+00 1.00e+00f  1
  27r 0.0000000e+00 2.89e-04 1.41e+02  -1.0 1.95e-02    -  1.00e+00 1.00e+00f  1
  28r 0.0000000e+00 1.50e-04 4.77e+01  -1.0 5.03e-03    -  1.00e+00 1.00e+00f  1
  29r 0.0000000e+00 7.43e-05 1.19e+02  -1.0 4.04e-03    -  1.00e+00 1.00e+00f  1
iter    objective    inf_pr   inf_du lg(mu)  ||d||  lg(rg) alpha_du alpha_pr  ls
  30r 0.0000000e+00 6.74e-05 4.85e+01  -1.0 7.53e-04    -  1.00e+00 1.00e+00h  1
  31r 0.0000000e+00 6.73e-05 2.76e+01  -1.0 3.89e-04    -  1.00e+00 1.00e+00h  1
  32r 0.0000000e+00 6.73e-05 4.73e-01  -1.0 8.42e-05    -  1.00e+00 1.00e+00h  1
  33r 0.0000000e+00 1.70e-05 1.60e+01  -2.5 1.27e-02    -  9.85e-01 9.61e-01f  1
  34r 0.0000000e+00 8.92e-06 7.49e+00  -2.5 1.18e-02    -  1.00e+00 1.00e+00f  1
  35r 0.0000000e+00 3.13e-06 1.06e+00  -2.5 6.88e-03    -  1.00e+00 1.00e+00h  1
  36r 0.0000000e+00 1.31e-06 6.68e+00  -2.5 1.51e-03    -  1.00e+00 1.00e+00H  1
  37r 0.0000000e+00 1.46e-06 3.60e+00  -2.5 2.78e-05   2.6 1.00e+00 1.00e+00h  1
  38r 0.0000000e+00 1.38e-06 3.08e+00  -2.5 3.07e-04    -  1.00e+00 1.00e+00h  1
  39r 0.0000000e+00 1.38e-06 1.55e+00  -2.5 2.03e-04    -  1.00e+00 1.00e+00h  1
iter    objective    inf_pr   inf_du lg(mu)  ||d||  lg(rg) alpha_du alpha_pr  ls
  40r 0.0000000e+00 1.38e-06 3.72e-01  -2.5 7.47e-05    -  1.00e+00 1.00e+00h  1
  41r 0.0000000e+00 1.38e-06 2.14e-02  -2.5 3.66e-05    -  1.00e+00 1.00e+00h  1
  42r 0.0000000e+00 5.95e-07 6.05e+00  -3.8 6.44e-03    -  1.00e+00 1.00e+00f  1
  43r 0.0000000e+00 2.83e-07 2.43e+00  -3.8 7.17e-03    -  1.00e+00 1.00e+00f  1
  44r 0.0000000e+00 1.16e-07 8.94e-01  -3.8 2.14e-03    -  1.00e+00 1.00e+00h  1
  45r 0.0000000e+00 7.22e-08 9.78e-01  -3.8 8.37e-04    -  1.00e+00 1.00e+00h  1
  46r 0.0000000e+00 6.18e-08 2.15e+00  -3.8 4.93e-04    -  1.00e+00 1.00e+00h  1
  47r 0.0000000e+00 5.79e-08 1.35e-01  -3.8 7.86e-06   2.1 1.00e+00 1.00e+00h  1
  48r 0.0000000e+00 5.95e-08 1.41e+00  -3.8 2.73e-04    -  1.00e+00 1.00e+00h  1
  49r 0.0000000e+00 5.81e-08 3.84e-01  -3.8 2.97e-05    -  1.00e+00 1.00e+00h  1
iter    objective    inf_pr   inf_du lg(mu)  ||d||  lg(rg) alpha_du alpha_pr  ls
  50r 0.0000000e+00 5.81e-08 5.26e-02  -3.8 6.39e-05    -  1.00e+00 1.00e+00h  1
  51r 0.0000000e+00 5.81e-08 3.54e-03  -3.8 6.26e-05    -  1.00e+00 1.00e+00h  1
  52r 0.0000000e+00 3.07e-08 3.34e-01  -5.7 3.88e-03    -  9.86e-01 9.78e-01f  1
  53r 0.0000000e+00 1.87e-08 1.79e+02  -5.7 6.29e-05   1.6 7.56e-01 5.97e-01f  1
  54r 0.0000000e+00 1.68e-08 2.11e+02  -5.7 1.29e-04   1.1 6.06e-01 1.00e+00f  1
  55r 0.0000000e+00 2.12e-08 1.11e+01  -5.7 4.74e-04   0.7 1.00e+00 1.00e+00h  1
  56r 0.0000000e+00 1.58e-08 1.10e+01  -5.7 9.03e-04   0.2 1.00e+00 1.00e+00h  1
  57r 0.0000000e+00 4.24e-08 5.19e+01  -5.7 5.10e-03    -  1.00e+00 8.69e-01h  1
  58r 0.0000000e+00 1.15e-08 2.49e+00  -5.7 1.36e-03    -  1.00e+00 1.00e+00f  1
  59r 0.0000000e+00 4.25e-09 2.56e+00  -5.7 2.00e-03    -  1.00e+00 1.00e+00h  1
Cannot recompute multipliers for feasibility problem.  Error in eq_mult_calculator

Number of Iterations....: 59

                                   (scaled)                 (unscaled)
Objective...............:   0.0000000000000000e+00    0.0000000000000000e+00
Dual infeasibility......:   0.0000000000000000e+00    0.0000000000000000e+00
Constraint violation....:   4.2509444331744325e-09    4.2509444331744325e-09
Complementarity.........:   0.0000000000000000e+00    0.0000000000000000e+00
Overall NLP error.......:   4.2509444331744325e-09    4.2509444331744325e-09


Number of objective function evaluations             = 87
Number of objective gradient evaluations             = 24
Number of equality constraint evaluations            = 87
Number of inequality constraint evaluations          = 87
Number of equality constraint Jacobian evaluations   = 61
Number of inequality constraint Jacobian evaluations = 61
Number of Lagrangian Hessian evaluations             = 59
Total CPU secs in IPOPT (w/o function evaluations)   =      0.180
Total CPU secs in NLP function evaluations           =      0.700

EXIT: Optimal Solution Found.
Note: The following floating-point exceptions are signalling: IEEE_UNDERFLOW_FLAG IEEE_DENORMAL

************************ CUTEst statistics ************************


 Package used            :  IPOPT
 Problem                 :  VANDERM1  
 # variables             =             100
 # constraints           =             199
 # objective functions   =        0.1120000E+03
 # objective gradients   =        0.2500000E+02
 # objective Hessians    =        0.5900000E+02
 # Hessian-vector prdct  =        0.0000000E+00
 # constraints functions =        0.1500000E+03
 # constraints gradients =        0.6300000E+02
 # constraints Hessians  =        0.5900000E+02
 Exit code               =               0
 Final f                 =   0.0000000E+00
 Set up time             =            0.05 seconds
 Solve time              =            1.35 seconds


******************************************************************

System Time =       0.8180000186 s.
